\ This file has been generated by DOcplex
\ ENCODING=ISO-8859-1
\Problem name: Knapsack

Maximize
 obj: 33 x_0 + 24 x_1 + 36 x_2 + 37 x_3 + 12 x_4
Subject To
 c0: 15 x_0 + 20 x_1 + 17 x_2 + 8 x_3 + 31 x_4 <= 80

Bounds
 0 <= x_0 <= 1
 0 <= x_1 <= 1
 0 <= x_2 <= 1
 0 <= x_3 <= 1
 0 <= x_4 <= 1

Binaries
 x_0 x_1 x_2 x_3 x_4
End
